# 	19.8	T IR	T Sens	Mag  	Hz   	Alt	Azi  	Lat    	Lon   	SL m
1	2019-02-05 	21:04:46	22.51	22.95	12.75	661	26	117	0	0	0
2	2019-02-05 	21:04:47	22.25	22.97	12.79	637	26	116	0	0	0
3	2019-02-05 	21:04:48	22.29	22.95	12.86	597	26	117	0	0	0
4	2019-02-05 	21:04:49	22.29	22.97	12.99	530	26	117	0	0	0
5	2019-02-05 	21:04:50	22.23	22.97	12.95	550	26	117	0	0	0
6	2019-02-05 	21:04:51	22.25	22.97	13.09	483	26	117	0	0	0
7	2019-02-05 	21:04:52	22.99	22.99	13.02	515	26	117	0	0	0
8	2019-02-05 	21:04:54	21.95	22.97	12.87	592	26	116	0	0	0
9	2019-02-05 	21:04:55	21.61	22.99	13.12	470	35	116	0	0	0
10	2019-02-05 	21:04:56	21.55	23.01	12.73	673	35	115	0	0	0
11	2019-02-05 	21:04:57	21.57	22.99	12.88	586	35	115	0	0	0
12	2019-02-05 	21:04:58	21.57	23.01	12.89	581	35	115	0	0	0
13	2019-02-05 	21:04:59	21.63	23.03	12.87	592	35	116	0	0	0
14	2019-02-05 	21:05:00	21.57	23.01	12.89	581	35	115	0	0	0
15	2019-02-05 	21:05:01	21.57	23.03	12.89	581	35	116	0	0	0
16	2019-02-05 	21:05:02	21.49	23.01	12.77	649	35	115	0	0	0
17	2019-02-05 	21:05:03	21.57	23.07	12.77	649	35	116	0	0	0
18	2019-02-05 	21:05:04	21.57	23.05	12.58	773	35	115	0	0	0
19	2019-02-05 	21:05:05	20.65	23.05	12.44	879	55	102	0	0	0
20	2019-02-05 	21:05:06	20.65	23.05	13.34	384	60	100	0	0	0
21	2019-02-05 	21:05:07	20.65	23.05	13.26	413	60	101	0	0	0
22	2019-02-05 	21:05:08	20.59	23.05	13.15	457	61	100	0	0	0
23	2019-02-05 	21:05:09	20.61	23.07	13.03	511	60	100	0	0	0
24	2019-02-05 	21:05:10	20.67	23.09	12.82	619	60	101	0	0	0
25	2019-02-05 	21:05:11	20.65	23.07	12.93	560	60	100	0	0	0
26	2019-02-05 	21:05:12	20.65	23.09	12.77	649	60	100	0	0	0
27	2019-02-05 	21:05:13	20.65	23.07	12.61	752	60	100	0	0	0
28	2019-02-05 	21:05:14	20.59	23.05	12.59	766	60	100	0	0	0
29	2019-02-05 	21:05:15	20.71	23.13	12.57	780	71	67	0	0	0
30	2019-02-05 	21:05:17	20.49	23.09	12.99	530	78	74	0	0	0
31	2019-02-05 	21:05:18	20.51	23.13	13	525	78	73	0	0	0
32	2019-02-05 	21:05:19	20.45	23.09	13.02	515	78	72	0	0	0
33	2019-02-05 	21:05:20	20.59	23.15	13	525	78	74	0	0	0
34	2019-02-05 	21:05:21	20.49	23.09	13.03	511	78	74	0	0	0
35	2019-02-05 	21:05:22	20.39	23.09	13.1	479	78	72	0	0	0
36	2019-02-05 	21:05:23	20.39	23.13	13.08	488	78	72	0	0	0
37	2019-02-05 	21:05:24	20.43	23.09	14.21	172	78	72	0	0	0
38	2019-02-05 	21:05:25	20.43	23.13	14.3	158	78	73	0	0	0
39	2019-02-05 	21:05:26	20.55	23.15	14	209	77	297	0	0	0
40	2019-02-05 	21:05:27	20.49	23.15	14.42	142	78	300	0	0	0
41	2019-02-05 	21:05:28	20.55	23.15	13.75	263	78	300	0	0	0
42	2019-02-05 	21:05:29	20.55	23.15	14.46	137	77	299	0	0	0
43	2019-02-05 	21:05:30	20.59	23.15	13.48	337	77	299	0	0	0
44	2019-02-05 	21:05:31	20.51	23.19	13.63	294	77	300	0	0	0
45	2019-02-05 	21:05:32	20.55	23.17	14.39	146	78	299	0	0	0
46	2019-02-05 	21:05:33	20.55	23.17	14.19	175	77	299	0	0	0
47	2019-02-05 	21:05:34	20.61	23.19	10.88	3698	78	299	0	0	0
48	2019-02-05 	21:05:35	20.51	23.19	10.87	3733	78	297	0	0	0
49	2019-02-05 	21:05:37	20.71	23.19	11.02	3251	61	278	0	0	0
50	2019-02-05 	21:05:38	20.71	23.21	11.01	3281	61	278	0	0	0
51	2019-02-05 	21:05:39	20.71	23.21	11.02	3251	61	277	0	0	0
52	2019-02-05 	21:05:40	20.73	23.19	14.28	161	61	278	0	0	0
53	2019-02-05 	21:05:41	20.71	23.19	14.28	161	61	278	0	0	0
54	2019-02-05 	21:05:42	20.67	23.21	14.06	198	61	279	0	0	0
55	2019-02-05 	21:05:43	20.73	23.23	13.77	258	61	277	0	0	0
56	2019-02-05 	21:05:44	20.71	23.23	13.95	219	61	278	0	0	0
57	2019-02-05 	21:05:45	20.71	23.21	14.34	153	61	277	0	0	0
58	2019-02-05 	21:05:46	20.89	23.25	14.35	151	43	273	0	0	0
59	2019-02-05 	21:05:47	20.89	23.27	14.46	137	43	273	0	0	0
60	2019-02-05 	21:05:48	20.89	23.23	14.39	146	43	273	0	0	0
61	2019-02-05 	21:05:49	20.87	23.23	14.42	142	43	273	0	0	0
62	2019-02-05 	21:05:50	20.87	23.25	14.45	138	43	272	0	0	0
63	2019-02-05 	21:05:51	20.93	23.25	14.36	150	43	273	0	0	0
64	2019-02-05 	21:05:52	20.99	23.25	14.28	161	44	274	0	0	0
65	2019-02-05 	21:05:53	20.93	23.27	14.45	138	43	273	0	0	0
66	2019-02-05 	21:05:54	20.93	23.27	14.23	169	43	273	0	0	0
67	2019-02-05 	21:05:55	20.93	23.27	14.43	141	43	273	0	0	0
68	2019-02-05 	21:05:56	20.95	23.27	14.41	143	31	280	0	0	0
69	2019-02-05 	21:05:57	21.21	23.27	14.66	114	23	268	0	0	0
70	2019-02-05 	21:05:58	21.15	23.29	14.95	87.096	23	268	0	0	0
71	2019-02-05 	21:05:59	21.17	23.27	15.31	62.517	23	268	0	0	0
72	2019-02-05 	21:06:00	21.17	23.27	15.31	62.517	23	268	0	0	0
73	2019-02-05 	21:06:01	21.17	23.27	15.29	63.68	23	268	0	0	0
74	2019-02-05 	21:06:02	21.15	23.29	15.25	66.069	23	268	0	0	0
75	2019-02-05 	21:06:03	21.15	23.29	15.23	67.298	23	269	0	0	0
76	2019-02-05 	21:06:04	21.15	23.29	15.09	76.56	23	268	0	0	0
77	2019-02-05 	21:06:05	21.17	23.31	14.92	89.536	23	269	0	0	0
78	2019-02-05 	21:06:06	21.33	23.29	14.89	92.045	23	268	0	0	0
79	2019-02-05 	21:06:07	20.51	23.29	14.94	87.902	76	294	0	0	0
80	2019-02-05 	21:06:08	21.95	23.29	13.28	406	34	109	0	0	0
81	2019-02-05 	21:06:09	21.89	23.31	12.01	1306	28	133	0	0	0
82	2019-02-05 	21:06:10	21.83	23.35	12.72	679	28	132	0	0	0
83	2019-02-05 	21:06:12	21.77	23.35	12.65	724	28	133	0	0	0
84	2019-02-05 	21:06:13	21.79	23.35	12.65	724	28	132	0	0	0
85	2019-02-05 	21:06:14	21.77	23.37	12.63	738	28	133	0	0	0
86	2019-02-05 	21:06:15	21.77	23.37	12.63	738	28	133	0	0	0
87	2019-02-05 	21:06:16	21.77	23.35	12.61	752	28	133	0	0	0
88	2019-02-05 	21:06:17	21.73	23.39	12.61	752	28	133	0	0	0
89	2019-02-05 	21:06:18	21.77	23.37	12.61	752	28	133	0	0	0
90	2019-02-05 	21:06:19	21.57	23.37	12.62	745	36	128	0	0	0
91	2019-02-05 	21:06:20	21.39	23.37	12.17	1127	36	133	0	0	0
92	2019-02-05 	21:06:21	21.45	23.41	12.18	1117	36	133	0	0	0
93	2019-02-05 	21:06:23	21.39	23.37	12.17	1127	36	133	0	0	0
94	2019-02-05 	21:06:24	21.43	23.41	12.17	1127	36	133	0	0	0
95	2019-02-05 	21:06:25	21.39	23.39	12.18	1117	36	134	0	0	0
96	2019-02-05 	21:06:26	21.43	23.43	12.18	1117	36	133	0	0	0
97	2019-02-05 	21:06:27	21.43	23.41	12.17	1127	36	133	0	0	0
98	2019-02-05 	21:06:28	21.43	23.41	12.19	1107	36	133	0	0	0
99	2019-02-05 	21:06:30	20.61	23.45	12.16	1138	60	122	0	0	0
100	2019-02-05 	21:06:31	20.61	23.43	12.47	855	60	123	0	0	0
101	2019-02-05 	21:06:32	20.51	23.43	12.48	847	60	123	0	0	0
102	2019-02-05 	21:06:33	20.45	23.41	12.49	839	60	122	0	0	0
103	2019-02-05 	21:06:35	20.49	23.43	12.49	839	60	122	0	0	0
104	2019-02-05 	21:06:36	20.51	23.47	12.47	855	60	122	0	0	0
105	2019-02-05 	21:06:37	20.49	23.45	12.47	855	60	122	0	0	0
106	2019-02-05 	21:06:38	20.45	23.45	12.48	847	60	122	0	0	0
107	2019-02-05 	21:06:39	20.51	23.47	12.48	847	60	122	0	0	0
108	2019-02-05 	21:06:40	20.33	23.45	12.5	832	79	95	0	0	0
109	2019-02-05 	21:06:41	20.31	23.45	12.97	540	79	97	0	0	0
110	2019-02-05 	21:06:42	20.33	23.49	12.95	550	79	95	0	0	0
111	2019-02-05 	21:06:43	20.33	23.49	12.95	550	79	96	0	0	0
112	2019-02-05 	21:06:44	20.31	23.47	12.96	545	79	96	0	0	0
113	2019-02-05 	21:06:45	20.31	23.47	12.96	545	79	95	0	0	0
114	2019-02-05 	21:06:46	20.33	23.49	12.96	545	79	94	0	0	0
115	2019-02-05 	21:06:47	20.33	23.49	12.96	545	79	95	0	0	0
116	2019-02-05 	21:06:48	20.33	23.49	12.96	545	79	96	0	0	0
117	2019-02-05 	21:06:49	20.33	23.51	12.94	555	79	96	0	0	0
118	2019-02-05 	21:06:50	20.37	23.53	12.98	535	79	318	0	0	0
119	2019-02-05 	21:06:51	20.37	23.53	13.38	370	79	317	0	0	0
120	2019-02-05 	21:06:52	20.33	23.49	13.33	387	79	316	0	0	0
121	2019-02-05 	21:06:53	20.33	23.51	13.38	370	79	319	0	0	0
122	2019-02-05 	21:06:54	20.37	23.53	13.37	373	79	318	0	0	0
123	2019-02-05 	21:06:55	20.33	23.51	13.51	328	79	315	0	0	0
124	2019-02-05 	21:06:56	20.33	23.53	13.51	328	79	316	0	0	0
125	2019-02-05 	21:06:57	20.37	23.51	13.52	325	79	317	0	0	0
126	2019-02-05 	21:06:58	20.33	23.53	13.35	380	79	318	0	0	0
127	2019-02-05 	21:06:59	20.33	23.53	13.34	384	79	315	0	0	0
128	2019-02-05 	21:07:00	20.51	23.55	13.49	334	62	293	0	0	0
129	2019-02-05 	21:07:01	20.45	23.55	13.82	247	62	294	0	0	0
130	2019-02-05 	21:07:02	20.55	23.59	14.14	184	62	293	0	0	0
131	2019-02-05 	21:07:04	20.55	23.59	14.1	191	62	293	0	0	0
132	2019-02-05 	21:07:05	20.51	23.55	14.19	175	62	293	0	0	0
133	2019-02-05 	21:07:06	20.45	23.61	14.19	175	62	293	0	0	0
134	2019-02-05 	21:07:07	20.51	23.59	14.22	171	62	292	0	0	0
135	2019-02-05 	21:07:08	20.51	23.59	14.23	169	62	293	0	0	0
136	2019-02-05 	21:07:09	20.55	23.61	14.12	187	62	293	0	0	0
137	2019-02-05 	21:07:10	20.67	23.61	14.2	174	45	289	0	0	0
138	2019-02-05 	21:07:11	20.83	23.61	14.44	139	43	284	0	0	0
139	2019-02-05 	21:07:12	20.83	23.61	14.55	126	43	285	0	0	0
140	2019-02-05 	21:07:13	20.87	23.65	14.83	97.275	43	284	0	0	0
141	2019-02-05 	21:07:14	20.83	23.63	14.59	121	43	283	0	0	0
142	2019-02-05 	21:07:15	20.81	23.63	14.46	137	43	285	0	0	0
143	2019-02-05 	21:07:16	20.83	23.65	14.6	120	43	285	0	0	0
144	2019-02-05 	21:07:17	20.87	23.65	14.51	131	43	284	0	0	0
145	2019-02-05 	21:07:19	20.83	23.65	14.57	124	43	285	0	0	0
146	2019-02-05 	21:07:20	20.83	23.65	14.47	136	43	284	0	0	0
147	2019-02-05 	21:07:21	21.17	23.65	14.52	129	23	280	0	0	0
148	2019-02-05 	21:07:22	21.21	23.65	14.81	99.083	23	279	0	0	0
149	2019-02-05 	21:07:23	21.15	23.65	14.79	101	23	279	0	0	0
150	2019-02-05 	21:07:24	21.15	23.67	14.75	105	23	279	0	0	0
151	2019-02-05 	21:07:25	21.11	23.65	14.6	120	23	280	0	0	0
152	2019-02-05 	21:07:26	21.15	23.67	14.31	157	23	280	0	0	0
153	2019-02-05 	21:07:27	21.11	23.65	14.54	127	23	280	0	0	0
154	2019-02-05 	21:07:28	21.11	23.65	14.53	128	23	280	0	0	0
155	2019-02-05 	21:07:30	21.17	23.69	14.67	113	23	280	0	0	0
156	2019-02-05 	21:07:31	20.51	23.67	14.27	163	71	283	0	0	0
157	2019-02-05 	21:07:32	21.77	23.69	13.86	238	24	131	0	0	0
158	2019-02-05 	21:07:33	21.29	23.69	13.03	511	25	152	0	0	0
159	2019-02-05 	21:07:34	21.17	23.69	12.72	679	26	153	0	0	0
160	2019-02-05 	21:07:35	21.07	23.71	12.69	698	25	154	0	0	0
161	2019-02-05 	21:07:37	21.07	23.71	12.81	625	26	153	0	0	0
162	2019-02-05 	21:07:38	21.15	23.73	12.72	679	25	154	0	0	0
163	2019-02-05 	21:07:39	21.07	23.69	12.76	655	26	153	0	0	0
164	2019-02-05 	21:07:40	21.15	23.69	12.85	603	25	154	0	0	0
165	2019-02-05 	21:07:41	21.11	23.73	12.84	608	26	154	0	0	0
166	2019-02-05 	21:07:42	21.11	23.73	12.79	637	25	153	0	0	0
167	2019-02-05 	21:07:43	21.01	23.73	12.87	592	24	175	0	0	0
168	2019-02-05 	21:07:44	20.77	23.75	12.91	570	35	155	0	0	0
169	2019-02-05 	21:07:45	20.77	23.75	12.87	592	35	155	0	0	0
170	2019-02-05 	21:07:46	20.77	23.75	12.88	586	35	155	0	0	0
171	2019-02-05 	21:07:47	20.73	23.75	12.89	581	34	155	0	0	0
172	2019-02-05 	21:07:48	20.71	23.77	12.88	586	35	155	0	0	0
173	2019-02-05 	21:07:49	20.73	23.77	12.97	540	34	155	0	0	0
174	2019-02-05 	21:07:51	20.81	23.75	13.08	488	34	155	0	0	0
175	2019-02-05 	21:07:51	20.87	23.77	13.05	501	34	155	0	0	0
176	2019-02-05 	21:07:52	20.87	23.75	13.12	470	34	155	0	0	0
177	2019-02-05 	21:07:55	20.23	23.81	13.23	425	59	151	0	0	0
178	2019-02-05 	21:07:56	20.21	23.77	13.21	433	59	152	0	0	0
179	2019-02-05 	21:07:57	20.23	23.75	13.36	377	59	151	0	0	0
180	2019-02-05 	21:07:58	20.27	23.83	13.18	445	59	151	0	0	0
181	2019-02-05 	21:07:59	20.27	23.81	13.31	394	59	151	0	0	0
182	2019-02-05 	21:08:00	20.21	23.81	13.01	520	59	151	0	0	0
183	2019-02-05 	21:08:01	20.27	23.83	13.01	520	59	151	0	0	0
184	2019-02-05 	21:08:02	20.27	23.85	13.32	391	59	152	0	0	0
185	2019-02-05 	21:08:03	20.23	23.81	12.95	550	59	151	0	0	0
186	2019-02-05 	21:08:04	20.21	23.87	13.28	406	59	153	0	0	0
187	2019-02-05 	21:08:05	20.21	23.85	13.47	340	78	134	0	0	0
188	2019-02-05 	21:08:06	20.23	23.87	13.16	453	78	135	0	0	0
189	2019-02-05 	21:08:07	20.27	23.83	13.18	445	78	134	0	0	0
190	2019-02-05 	21:08:09	20.17	23.85	13.42	356	78	133	0	0	0
191	2019-02-05 	21:08:10	20.23	23.89	13.15	457	78	132	0	0	0
192	2019-02-05 	21:08:11	20.15	23.91	13.25	417	78	134	0	0	0
193	2019-02-05 	21:08:12	20.21	23.87	13.2	437	78	134	0	0	0
194	2019-02-05 	21:08:13	20.23	23.87	13.21	433	78	135	0	0	0
195	2019-02-05 	21:08:14	20.27	23.91	13.05	501	78	133	0	0	0
196	2019-02-05 	21:08:15	20.21	23.87	13.32	391	80	349	0	0	0
197	2019-02-05 	21:08:19	20.21	23.91	13.2	437	81	351	0	0	0
198	2019-02-05 	21:08:21	20.17	23.91	13.2	437	80	349	0	0	0
199	2019-02-05 	21:08:22	20.21	23.91	13.22	429	80	349	0	0	0
200	2019-02-05 	21:08:23	20.17	23.95	13.2	437	80	348	0	0	0
201	2019-02-05 	21:08:24	20.39	23.93	13.21	433	80	352	0	0	0
202	2019-02-05 	21:08:25	20.37	23.93	13.53	322	62	317	0	0	0
203	2019-02-05 	21:08:26	20.43	23.93	13.69	278	62	321	0	0	0
204	2019-02-05 	21:08:27	20.37	23.93	13.56	313	61	317	0	0	0
205	2019-02-05 	21:08:28	20.43	23.97	13.79	254	62	319	0	0	0
206	2019-02-05 	21:08:29	20.39	23.95	13.63	294	62	318	0	0	0
207	2019-02-05 	21:08:30	20.39	23.95	13.59	305	62	319	0	0	0
208	2019-02-05 	21:08:31	20.43	23.95	13.99	211	62	320	0	0	0
209	2019-02-05 	21:08:32	20.43	23.95	13.68	281	62	319	0	0	0
210	2019-02-05 	21:08:33	20.43	23.97	13.82	247	62	319	0	0	0
211	2019-02-05 	21:08:34	20.33	23.95	13.98	213	62	319	0	0	0
212	2019-02-05 	21:08:35	20.65	23.97	14.25	166	44	298	0	0	0
213	2019-02-05 	21:08:36	20.67	23.97	14.44	139	44	299	0	0	0
214	2019-02-05 	21:08:37	20.65	23.97	14.45	138	44	299	0	0	0
215	2019-02-05 	21:08:38	20.67	23.97	14.4	145	45	300	0	0	0
216	2019-02-05 	21:08:39	20.61	23.99	14.1	191	44	301	0	0	0
217	2019-02-05 	21:08:40	20.61	23.99	13.89	231	44	301	0	0	0
218	2019-02-05 	21:08:41	20.61	23.97	14.27	163	45	300	0	0	0
219	2019-02-05 	21:08:42	20.61	24.01	13.89	231	45	300	0	0	0
220	2019-02-05 	21:08:43	20.65	24.01	14.12	187	44	299	0	0	0
221	2019-02-05 	21:08:44	20.55	23.99	13.91	227	45	301	0	0	0
222	2019-02-05 	21:08:46	20.95	24.05	14.94	87.902	23	292	0	0	0
223	2019-02-05 	21:08:48	20.87	24.01	14.66	114	23	292	0	0	0
224	2019-02-05 	21:08:49	20.87	24.01	14.6	120	23	292	0	0	0
225	2019-02-05 	21:08:50	20.89	24.05	14.94	87.902	23	291	0	0	0
226	2019-02-05 	21:08:51	20.83	24.05	14.92	89.536	23	293	0	0	0
227	2019-02-05 	21:08:52	20.87	23.99	14.74	106	23	293	0	0	0
228	2019-02-05 	21:08:53	20.93	24.05	14.94	87.902	23	292	0	0	0
229	2019-02-05 	21:08:54	20.87	24.07	14.73	107	23	292	0	0	0
230	2019-02-05 	21:08:55	20.51	24.05	14.91	90.365	55	321	0	0	0
231	2019-02-05 	21:08:56	20.77	24.07	13.49	334	22	169	0	0	0
232	2019-02-05 	21:08:57	20.37	24.07	12.57	780	26	179	0	0	0
233	2019-02-05 	21:08:58	20.33	24.07	13.61	299	26	179	0	0	0
234	2019-02-05 	21:09:01	20.27	24.07	13.61	299	26	180	0	0	0
235	2019-02-05 	21:09:02	20.33	24.11	13.79	254	26	180	0	0	0
236	2019-02-05 	21:09:03	20.27	24.07	13.94	221	26	179	0	0	0
237	2019-02-05 	21:09:04	20.37	24.11	14.05	200	26	178	0	0	0
238	2019-02-05 	21:09:05	20.33	24.11	13.9	229	26	178	0	0	0
239	2019-02-05 	21:09:06	20.31	24.11	14.02	205	26	179	0	0	0
240	2019-02-05 	21:09:07	20.23	24.13	13.97	215	26	178	0	0	0
241	2019-02-05 	21:09:08	20.17	24.09	14.05	200	34	185	0	0	0
242	2019-02-05 	21:09:09	20.23	24.13	13.6	302	35	185	0	0	0
243	2019-02-05 	21:09:10	20.27	24.13	13.79	254	34	184	0	0	0
244	2019-02-05 	21:09:11	20.23	24.13	13.44	350	34	184	0	0	0
245	2019-02-05 	21:09:12	20.33	24.15	13.62	296	34	183	0	0	0
246	2019-02-05 	21:09:13	20.27	24.15	13.56	313	34	183	0	0	0
247	2019-02-05 	21:09:15	20.21	24.13	13.34	384	34	184	0	0	0
248	2019-02-05 	21:09:16	20.23	24.15	13.33	387	34	184	0	0	0
249	2019-02-05 	21:09:17	20.21	24.13	13.37	373	34	183	0	0	0
250	2019-02-05 	21:09:18	20.11	24.15	13.34	384	59	192	0	0	0
251	2019-02-05 	21:09:19	20.15	24.17	13.08	488	59	193	0	0	0
252	2019-02-05 	21:09:20	20.09	24.17	13.15	457	59	192	0	0	0
253	2019-02-05 	21:09:21	20.11	24.17	13.41	360	59	192	0	0	0
254	2019-02-05 	21:09:22	20.11	24.15	13.55	316	59	192	0	0	0
255	2019-02-05 	21:09:23	20.11	24.19	13.67	283	59	193	0	0	0
256	2019-02-05 	21:09:24	20.11	24.19	13.61	299	59	193	0	0	0
257	2019-02-05 	21:09:26	20.15	24.19	13.4	363	59	191	0	0	0
258	2019-02-05 	21:09:27	20.01	24.19	13.29	402	59	192	0	0	0
259	2019-02-05 	21:09:28	20.09	24.21	13.15	457	78	189	0	0	0
260	2019-02-05 	21:09:29	20.09	24.23	13.27	409	78	191	0	0	0
261	2019-02-05 	21:09:30	20.11	24.21	13.33	387	78	189	0	0	0
262	2019-02-05 	21:09:31	20.05	24.21	13.05	501	78	190	0	0	0
263	2019-02-05 	21:09:32	20.05	24.21	13.05	501	78	191	0	0	0
264	2019-02-05 	21:09:33	20.05	24.23	12.99	530	78	191	0	0	0
265	2019-02-05 	21:09:34	20.01	24.21	12.99	530	78	192	0	0	0
266	2019-02-05 	21:09:35	20.01	24.23	13.07	492	78	191	0	0	0
267	2019-02-05 	21:09:36	20.11	24.23	13.17	449	78	190	0	0	0
268	2019-02-05 	21:09:37	20.05	24.27	13.2	437	78	191	0	0	0
269	2019-02-05 	21:09:38	20.05	24.27	13.52	325	81	60	0	0	0
270	2019-02-05 	21:09:39	20.09	24.27	13.88	233	80	66	0	0	0
271	2019-02-05 	21:09:40	20.11	24.27	13.79	254	80	67	0	0	0
272	2019-02-05 	21:09:41	20.05	24.27	13.78	256	80	66	0	0	0
273	2019-02-05 	21:09:42	20.09	24.27	13.75	263	80	66	0	0	0
274	2019-02-05 	21:09:43	20.01	24.23	13.5	331	80	64	0	0	0
275	2019-02-05 	21:09:45	20.05	24.29	13.29	402	81	66	0	0	0
276	2019-02-05 	21:09:46	20.09	24.29	13.39	366	81	64	0	0	0
277	2019-02-05 	21:09:47	20.09	24.31	13.19	441	81	64	0	0	0
278	2019-02-05 	21:09:48	20.11	24.29	13.22	429	68	128	0	0	0
279	2019-02-05 	21:09:49	20.37	24.31	13.21	433	63	53	0	0	0
280	2019-02-05 	21:09:50	20.33	24.31	13.29	402	64	51	0	0	0
281	2019-02-05 	21:09:51	20.37	24.33	13.38	370	63	57	0	0	0
282	2019-02-05 	21:09:52	20.37	24.31	13.45	347	63	62	0	0	0
283	2019-02-05 	21:09:53	20.37	24.33	13.37	373	64	53	0	0	0
284	2019-02-05 	21:09:54	20.39	24.35	13.56	313	64	55	0	0	0
285	2019-02-05 	21:09:55	20.31	24.33	13.88	233	64	55	0	0	0
286	2019-02-05 	21:09:56	20.27	24.33	13.8	251	64	54	0	0	0
287	2019-02-05 	21:09:57	20.37	24.35	14.01	207	63	57	0	0	0
288	2019-02-05 	21:09:58	20.31	24.35	13.86	238	63	54	0	0	0
289	2019-02-05 	21:09:59	20.67	24.37	13.54	319	45	28	0	0	0
290	2019-02-05 	21:10:00	20.51	24.33	13.95	219	44	23	0	0	0
291	2019-02-05 	21:10:01	20.67	24.37	13.64	291	44	29	0	0	0
292	2019-02-05 	21:10:02	20.55	24.35	13.76	261	45	30	0	0	0
293	2019-02-05 	21:10:03	20.61	24.37	13.58	308	45	22	0	0	0
294	2019-02-05 	21:10:04	20.55	24.39	13.66	286	44	30	0	0	0
295	2019-02-05 	21:10:06	20.61	24.39	13.57	310	45	25	0	0	0
296	2019-02-05 	21:10:07	20.59	24.37	13.56	313	45	25	0	0	0
297	2019-02-05 	21:10:08	20.61	24.37	13.62	296	44	23	0	0	0
298	2019-02-05 	21:10:09	20.99	24.41	13.63	294	24	311	0	0	0
299	2019-02-05 	21:10:11	20.95	24.39	14.65	115	24	308	0	0	0
300	2019-02-05 	21:10:12	20.95	24.41	14.66	114	24	307	0	0	0
301	2019-02-05 	21:10:13	20.95	24.37	14.68	112	24	304	0	0	0
302	2019-02-05 	21:10:14	20.89	24.43	14.68	112	24	306	0	0	0
303	2019-02-05 	21:10:15	20.99	24.43	14.67	113	24	306	0	0	0
304	2019-02-05 	21:10:16	20.93	24.43	14.48	134	24	307	0	0	0
305	2019-02-05 	21:10:17	20.89	24.41	14.6	120	24	305	0	0	0
306	2019-02-05 	21:10:18	20.89	24.41	14.67	113	24	305	0	0	0
307	2019-02-05 	21:10:19	20.49	24.41	14.65	115	24	307	0	0	0
308	2019-02-05 	21:10:20	20.01	24.43	13.77	258	54	131	0	0	0
309	2019-02-05 	21:10:21	20.33	24.41	13.76	261	23	208	0	0	0
310	2019-02-05 	21:10:22	20.45	24.45	13.96	217	23	209	0	0	0
311	2019-02-05 	21:10:23	20.39	24.45	13.66	286	23	206	0	0	0
312	2019-02-05 	21:10:24	20.37	24.45	13.85	240	23	208	0	0	0
313	2019-02-05 	21:10:26	20.31	24.45	13.55	316	23	208	0	0	0
314	2019-02-05 	21:10:27	20.33	24.45	13.62	296	23	207	0	0	0
315	2019-02-05 	21:10:28	20.39	24.49	13.55	316	23	207	0	0	0
316	2019-02-05 	21:10:29	20.37	24.49	13.66	286	24	208	0	0	0
317	2019-02-05 	21:10:30	20.31	24.45	13.6	302	23	205	0	0	0
318	2019-02-05 	21:10:31	20.33	24.49	13.63	294	24	209	0	0	0
319	2019-02-05 	21:10:32	20.23	24.49	13.64	291	32	217	0	0	0
320	2019-02-05 	21:10:33	20.33	24.49	13.6	302	32	217	0	0	0
321	2019-02-05 	21:10:34	20.27	24.51	13.57	310	32	218	0	0	0
322	2019-02-05 	21:10:35	20.27	24.51	13.52	325	32	217	0	0	0
323	2019-02-05 	21:10:36	20.23	24.51	13.56	313	32	218	0	0	0
324	2019-02-05 	21:10:37	20.23	24.51	13.55	316	32	217	0	0	0
325	2019-02-05 	21:10:38	20.23	24.51	13.58	308	32	217	0	0	0
326	2019-02-05 	21:10:40	20.27	24.53	13.65	288	32	217	0	0	0
327	2019-02-05 	21:10:41	20.31	24.55	13.52	325	32	217	0	0	0
328	2019-02-05 	21:10:43	20.15	24.55	13.78	256	58	237	0	0	0
329	2019-02-05 	21:10:44	20.11	24.55	13.77	258	58	237	0	0	0
330	2019-02-05 	21:10:45	20.09	24.53	13.81	249	58	236	0	0	0
331	2019-02-05 	21:10:46	20.01	24.55	13.92	225	58	236	0	0	0
332	2019-02-05 	21:10:47	20.01	24.55	14.01	207	58	235	0	0	0
333	2019-02-05 	21:10:48	20.15	24.53	14.04	201	58	237	0	0	0
334	2019-02-05 	21:10:49	20.15	24.57	13.84	242	58	237	0	0	0
335	2019-02-05 	21:10:50	20.11	24.59	14.07	196	58	238	0	0	0
336	2019-02-05 	21:10:51	20.15	24.59	13.9	229	58	236	0	0	0
337	2019-02-05 	21:10:52	20.09	24.59	14.04	201	58	235	0	0	0
338	2019-02-05 	21:10:53	19.99	24.57	13.89	231	76	238	0	0	0
339	2019-02-05 	21:10:54	19.99	24.57	13.85	240	76	237	0	0	0
340	2019-02-05 	21:10:55	19.95	24.59	13.84	242	76	238	0	0	0
341	2019-02-05 	21:10:56	20.01	24.61	13.67	283	76	240	0	0	0
342	2019-02-05 	21:10:57	19.99	24.59	13.48	337	76	239	0	0	0
343	2019-02-05 	21:10:58	19.87	24.59	13.38	370	76	238	0	0	0
344	2019-02-05 	21:11:00	20.01	24.61	13.41	360	76	238	0	0	0
345	2019-02-05 	21:11:01	19.95	24.61	13.39	366	76	238	0	0	0
346	2019-02-05 	21:11:02	19.95	24.63	13.32	391	76	236	0	0	0
347	2019-02-05 	21:11:03	19.99	24.61	13.28	406	84	159	0	0	0
348	2019-02-05 	21:11:04	19.99	24.65	13.34	384	82	125	0	0	0
349	2019-02-05 	21:11:05	19.93	24.63	13.09	483	82	126	0	0	0
350	2019-02-05 	21:11:06	19.99	24.65	13.28	406	81	128	0	0	0
351	2019-02-05 	21:11:07	19.95	24.63	13.1	479	82	128	0	0	0
352	2019-02-05 	21:11:08	19.95	24.65	13.16	453	82	127	0	0	0
353	2019-02-05 	21:11:09	19.99	24.65	13.14	461	82	125	0	0	0
354	2019-02-05 	21:11:10	19.95	24.65	13.03	511	82	127	0	0	0
355	2019-02-05 	21:11:11	19.95	24.65	13.03	511	82	127	0	0	0
356	2019-02-05 	21:11:12	19.95	24.67	13.47	340	82	128	0	0	0
357	2019-02-05 	21:11:13	19.99	24.65	13.2	437	82	115	0	0	0
358	2019-02-05 	21:11:14	20.23	24.67	13.05	501	64	116	0	0	0
359	2019-02-05 	21:11:15	20.23	24.69	12.98	535	64	116	0	0	0
360	2019-02-05 	21:11:16	20.31	24.69	12.98	535	64	117	0	0	0
361	2019-02-05 	21:11:18	20.21	24.69	13	525	64	115	0	0	0
362	2019-02-05 	21:11:19	20.23	24.69	13.05	501	64	116	0	0	0
363	2019-02-05 	21:11:20	20.31	24.73	12.98	535	64	117	0	0	0
364	2019-02-05 	21:11:21	20.21	24.73	13	525	64	117	0	0	0
365	2019-02-05 	21:11:22	20.23	24.73	13.03	511	64	117	0	0	0
366	2019-02-05 	21:11:23	20.15	24.73	13.14	461	64	117	0	0	0
367	2019-02-05 	21:11:25	20.59	24.73	13.39	366	46	126	0	0	0
368	2019-02-05 	21:11:26	20.55	24.77	13.42	356	46	126	0	0	0
369	2019-02-05 	21:11:27	20.65	24.77	13.66	286	47	125	0	0	0
370	2019-02-05 	21:11:28	20.59	24.75	13.78	256	47	126	0	0	0
371	2019-02-05 	21:11:29	20.61	24.75	13.84	242	47	125	0	0	0
372	2019-02-05 	21:11:30	20.59	24.75	13.76	261	47	126	0	0	0
373	2019-02-05 	21:11:31	20.59	24.75	13.54	319	47	126	0	0	0
374	2019-02-05 	21:11:32	20.61	24.79	13.48	337	46	127	0	0	0
375	2019-02-05 	21:11:33	20.59	24.77	13.27	409	47	127	0	0	0
376	2019-02-05 	21:11:34	20.99	24.79	13.4	363	25	139	0	0	0
377	2019-02-05 	21:11:35	21.01	24.77	13.63	294	26	139	0	0	0
378	2019-02-05 	21:11:36	21.01	24.81	13.45	347	25	138	0	0	0
379	2019-02-05 	21:11:37	20.95	24.79	13.39	366	26	139	0	0	0
380	2019-02-05 	21:11:38	21.01	24.77	13.34	384	25	139	0	0	0
381	2019-02-05 	21:11:39	20.99	24.79	13.34	384	26	140	0	0	0
382	2019-02-05 	21:11:40	20.99	24.79	13.4	363	26	138	0	0	0
383	2019-02-05 	21:11:41	20.99	24.79	13.32	391	26	138	0	0	0
384	2019-02-05 	21:11:42	20.99	24.79	13.35	380	26	139	0	0	0
385	2019-02-05 	21:11:43	20.95	24.79	13.32	391	26	139	0	0	0
386	2019-02-05 	21:11:44	20.77	24.81	13.33	387	43	110	0	0	0
387	2019-02-05 	21:11:45	20.09	24.85	13.12	470	62	248	0	0	0
388	2019-02-05 	21:11:46	20.39	24.83	13.67	283	24	255	0	0	0
389	2019-02-05 	21:11:47	20.49	24.83	14.11	189	25	257	0	0	0
390	2019-02-05 	21:11:49	20.45	24.83	14.43	141	25	257	0	0	0
391	2019-02-05 	21:11:50	20.45	24.85	14.44	139	25	256	0	0	0
392	2019-02-05 	21:11:51	20.49	24.83	14.39	146	25	257	0	0	0
393	2019-02-05 	21:11:52	20.39	24.83	14.37	149	25	256	0	0	0
394	2019-02-05 	21:11:53	20.43	24.85	14.39	146	25	254	0	0	0
395	2019-02-05 	21:11:55	20.39	24.87	14.03	203	25	254	0	0	0
396	2019-02-05 	21:11:57	20.33	24.83	14.35	151	32	265	0	0	0
397	2019-02-05 	21:11:58	20.37	24.87	14.07	196	32	263	0	0	0
398	2019-02-05 	21:11:59	20.33	24.89	14.04	201	32	263	0	0	0
399	2019-02-05 	21:12:00	20.39	24.89	14.38	147	31	261	0	0	0
400	2019-02-05 	21:12:01	20.43	24.91	14.06	198	32	262	0	0	0
401	2019-02-05 	21:12:02	20.49	24.91	14.12	187	32	262	0	0	0
402	2019-02-05 	21:12:03	20.43	24.89	14.06	198	32	263	0	0	0
403	2019-02-05 	21:12:04	20.37	24.87	14.08	194	32	262	0	0	0
404	2019-02-05 	21:12:05	20.39	24.91	14.26	164	31	260	0	0	0
405	2019-02-05 	21:12:06	20.15	24.91	14.27	163	32	262	0	0	0
406	2019-02-05 	21:12:07	20.17	24.95	13.56	313	57	280	0	0	0
407	2019-02-05 	21:12:09	20.17	24.95	13.53	322	56	276	0	0	0
408	2019-02-05 	21:12:10	20.23	24.97	13.79	254	56	277	0	0	0
409	2019-02-05 	21:12:11	20.21	24.97	13.57	310	56	276	0	0	0
410	2019-02-05 	21:12:12	20.21	24.95	13.7	275	56	277	0	0	0
411	2019-02-05 	21:12:13	20.17	24.99	13.82	247	56	277	0	0	0
412	2019-02-05 	21:12:14	20.21	24.97	14.12	187	57	278	0	0	0
413	2019-02-05 	21:12:15	20.21	24.97	13.82	247	57	278	0	0	0
414	2019-02-05 	21:12:16	19.99	24.97	14.07	196	56	275	0	0	0
415	2019-02-05 	21:12:17	20.01	24.97	13.96	217	75	297	0	0	0
416	2019-02-05 	21:12:18	19.89	24.97	13.93	223	75	282	0	0	0
417	2019-02-05 	21:12:19	19.99	24.99	13.82	247	75	282	0	0	0
418	2019-02-05 	21:12:20	19.95	24.99	13.95	219	75	279	0	0	0
419	2019-02-05 	21:12:21	19.99	24.99	13.48	337	75	281	0	0	0
420	2019-02-05 	21:12:22	19.99	24.99	13.75	263	75	281	0	0	0
421	2019-02-05 	21:12:24	20.01	24.99	13.44	350	75	283	0	0	0
422	2019-02-05 	21:12:25	19.93	25.01	13.36	377	75	282	0	0	0
423	2019-02-05 	21:12:26	19.93	25.03	13.46	344	75	282	0	0	0
424	2019-02-05 	21:12:27	19.89	25.03	13.22	429	82	178	0	0	0
425	2019-02-05 	21:12:28	19.87	25.09	12.97	540	82	179	0	0	0
426	2019-02-05 	21:12:29	19.83	25.01	12.99	530	82	178	0	0	0
427	2019-02-05 	21:12:30	19.93	25.05	13.07	492	82	177	0	0	0
428	2019-02-05 	21:12:31	19.89	25.03	13.19	441	82	178	0	0	0
429	2019-02-05 	21:12:32	19.89	25.03	13.31	394	82	177	0	0	0
430	2019-02-05 	21:12:33	19.87	25.03	13.24	421	82	178	0	0	0
431	2019-02-05 	21:12:34	19.89	25.07	13.57	310	82	179	0	0	0
432	2019-02-05 	21:12:35	19.87	25.09	13.7	275	82	177	0	0	0
433	2019-02-05 	21:12:36	19.89	25.07	13.75	263	82	178	0	0	0
434	2019-02-05 	21:12:37	20.11	25.09	13.73	268	65	153	0	0	0
435	2019-02-05 	21:12:38	20.11	25.05	13.31	394	65	153	0	0	0
436	2019-02-05 	21:12:39	20.11	25.05	13.09	483	66	153	0	0	0
437	2019-02-05 	21:12:40	20.05	25.09	13.43	353	65	152	0	0	0
438	2019-02-05 	21:12:42	20.11	25.09	12.85	603	66	153	0	0	0
439	2019-02-05 	21:12:43	19.99	25.09	12.87	592	65	153	0	0	0
440	2019-02-05 	21:12:44	20.09	25.11	12.88	586	65	153	0	0	0
441	2019-02-05 	21:12:46	20.05	25.11	12.71	685	65	153	0	0	0
442	2019-02-05 	21:12:47	20.83	25.11	12.65	724	47	155	0	0	0
443	2019-02-05 	21:12:48	20.81	25.13	12.23	1067	47	155	0	0	0
444	2019-02-05 	21:12:49	20.83	25.11	12.25	1047	47	155	0	0	0
445	2019-02-05 	21:12:50	20.87	25.11	12.25	1047	47	154	0	0	0
446	2019-02-05 	21:12:51	20.83	25.13	12.37	938	46	156	0	0	0
447	2019-02-05 	21:12:52	20.93	25.13	12.52	817	46	156	0	0	0
448	2019-02-05 	21:12:53	20.89	25.11	12.67	711	47	155	0	0	0
449	2019-02-05 	21:12:54	20.87	25.13	12.77	649	47	155	0	0	0
450	2019-02-05 	21:12:55	20.87	25.19	12.81	625	46	155	0	0	0
451	2019-02-05 	21:12:56	20.81	25.13	12.9	575	46	155	0	0	0
452	2019-02-05 	21:12:57	22.05	25.13	13.07	492	25	159	0	0	0
453	2019-02-05 	21:12:58	22.11	25.19	13.37	373	25	159	0	0	0
454	2019-02-05 	21:13:00	22.05	25.17	13.26	413	25	160	0	0	0
455	2019-02-05 	21:13:01	22.07	25.19	13.28	406	25	160	0	0	0
456	2019-02-05 	21:13:02	22.11	25.17	12.78	643	25	160	0	0	0
457	2019-02-05 	21:13:03	22.05	25.19	13.07	492	25	160	0	0	0
458	2019-02-05 	21:13:04	22.11	25.21	12.78	643	25	158	0	0	0
459	2019-02-05 	21:13:05	22.11	25.21	12.72	679	26	160	0	0	0
460	2019-02-05 	21:13:06	22.11	25.21	12.76	655	25	160	0	0	0
461	2019-02-05 	21:13:07	22.11	25.19	12.67	711	32	150	0	0	0
462	2019-02-05 	21:13:08	19.95	25.19	12.34	964	66	255	0	0	0
463	2019-02-05 	21:13:09	20.27	25.23	13.41	360	66	255	0	0	0
464	2019-02-05 	21:13:10	21.37	25.23	13.5	331	25	141	0	0	0
465	2019-02-05 	21:13:11	21.33	25.23	12.85	603	26	115	0	0	0
466	2019-02-05 	21:13:12	21.37	25.25	12.15	1148	26	115	0	0	0
